NAME: instance_2499
TYPE: TSP
DIMENSION: 20
EDGE_WEIGHT_TYPE: EUC_2D
NODE_COORD_SECTION
0 73.98 3.04
1 10.52 5.04
2 99.91 18.82
3 19.11 69.76
4 9.85 46.91
5 16.34 25.63
6 23.32 71.11
7 43.08 23.10
8 76.64 57.79
9 92.69 91.26
10 92.61 43.15
11 56.89 14.07
12 20.95 47.70
13 97.96 16.98
14 95.64 49.26
15 37.66 16.97
16 91.87 88.00
17 72.65 27.23
18 81.38 85.71
19 44.20 99.48
EOF
